examples/con/graph-20-45.param
$ generated by rg.pl with seed 45
letting n be 20
$ 33 edges
letting E be {{10,19},{4,14},{7,10},{8,19},{14,19},{3,8},{1,11},{8,14},{3,15},{1,17},{13,20},{14,18},{11,12},{3,19},{9,17},{15,18},{7,12},{2,12},{1,18},{1,13},{14,16},{7,8},{5,20},{17,19},{13,16},{3,12},{9,18},{6,19},{11,20},{7,14},{1,19},{5,15},{9,16}}
